(declare-const x0 Real)
(assert (<= 0.0 x0))
(declare-const x1 Real)
(assert (<= 0.0 x1))
(declare-const x2 Real)
(assert (<= 0.0 x2))
(declare-const x3 Real)
(assert (<= 0.0 x3))
(declare-const x4 Real)
(assert (<= 0.0 x4))
(declare-const x5 Real)
(assert (<= 0.0 x5))
(declare-const x6 Real)
(assert (<= 0.0 x6))
(declare-const x7 Real)
(assert (<= 0.0 x7))

(assert (<= 2.717857 (+ (* 1.0 x0) (* 0.500000 x1) (* 0.333333 x2) (* 0.250000 x3) (* 0.200000 x4) (* 0.166667 x5) (* 0.142857 x6) (* 0.125000 x7))))
(assert (<= 1.828968 (+ (* 0.500000 x0) (* 0.333333 x1) (* 0.250000 x2) (* 0.200000 x3) (* 0.166667 x4) (* 0.142857 x5) (* 0.125000 x6) (* 0.111111 x7))))
(assert (<= 1.428968 (+ (* 0.333333 x0) (* 0.250000 x1) (* 0.200000 x2) (* 0.166667 x3) (* 0.142857 x4) (* 0.125000 x5) (* 0.111111 x6) (* 0.100000 x7))))
(assert (<= 1.186544 (+ (* 0.250000 x0) (* 0.200000 x1) (* 0.166667 x2) (* 0.142857 x3) (* 0.125000 x4) (* 0.111111 x5) (* 0.100000 x6) (* 0.090909 x7))))
(assert (<= 1.019877 (+ (* 0.200000 x0) (* 0.166667 x1) (* 0.142857 x2) (* 0.125000 x3) (* 0.111111 x4) (* 0.100000 x5) (* 0.090909 x6) (* 0.083333 x7))))
(assert (<= 0.896800 (+ (* 0.166667 x0) (* 0.142857 x1) (* 0.125000 x2) (* 0.111111 x3) (* 0.100000 x4) (* 0.090909 x5) (* 0.083333 x6) (* 0.076923 x7))))
(assert (<= 0.801562 (+ (* 0.142857 x0) (* 0.125000 x1) (* 0.111111 x2) (* 0.100000 x3) (* 0.090909 x4) (* 0.083333 x5) (* 0.076923 x6) (* 0.071429 x7))))
(assert (<= 0.725372 (+ (* 0.125000 x0) (* 0.111111 x1) (* 0.100000 x2) (* 0.090909 x3) (* 0.083333 x4) (* 0.076923 x5) (* 0.071429 x6) (* 0.066667 x7))))

(minimize
	(+ (* 2.717857 x0) (* 1.828968 x1) (* 1.428968 x2) (* 1.186544 x3) (* 1.019877 x4) (* 0.896800 x5) (* 0.801562 x6) (* 0.725372 x7))
)
(check-sat)
(get-objectives)
(exit)

